Model Comparison - full MRP:

Parameters:
W = 200
K = 3
Duplications = 20
s = 5
r = 10
Starting Positions = 1.0, 1.01, 2.0

Gurobi Log Excerpt:
Academic license - for non-commercial use only - expires 2021-07-06
Using license file /Users/ellajohnsen/gurobi.lic
Gurobi Optimizer version 9.1.1 build v9.1.1rc0 (mac64)
Thread count: 8 physical cores, 8 logical processors, using up to 8 threads
Optimize a model with 4363 rows, 9934 columns and 237225 nonzeros
Model fingerprint: 0xf9443d11
Variable types: 82 continuous, 9852 integer (9852 binary)
Coefficient statistics:
  Matrix range     [1e+00, 2e+02]
  Objective range  [3e+02, 4e+06]
  Bounds range     [1e+00, 2e+02]
  RHS range        [1e+00, 2e+02]
Found heuristic solution: objective 1.480000e+08
Presolve removed 1508 rows and 4007 columns
Presolve time: 2.88s
Presolved: 2855 rows, 5927 columns, 30840 nonzeros
Variable types: 63 continuous, 5864 integer (5824 binary)

Root relaxation: objective 5.603720e+07, 1907 iterations, 0.30 seconds

    Nodes    |    Current Node    |     Objective Bounds      |     Work
 Expl Unexpl |  Obj  Depth IntInf | Incumbent    BestBd   Gap | It/Node Time

     0     0 5.6037e+07    0  222 1.4800e+08 5.6037e+07  62.1%     -    3s
     0     0 5.6037e+07    0  269 1.4800e+08 5.6037e+07  62.1%     -    5s
H    0     0                    1.320108e+08 5.6037e+07  57.6%     -    6s
     0     0 5.6037e+07    0  268 1.3201e+08 5.6037e+07  57.6%     -    6s
     0     0 5.6037e+07    0  259 1.3201e+08 5.6037e+07  57.6%     -    7s
H    0     0                    1.240188e+08 5.6037e+07  54.8%     -    8s
     0     0 5.6037e+07    0  243 1.2402e+08 5.6037e+07  54.8%     -    8s
     0     0 5.6037e+07    0  226 1.2402e+08 5.6037e+07  54.8%     -    8s
     0     0 5.6037e+07    0  220 1.2402e+08 5.6037e+07  54.8%     -    9s
     0     2 5.6037e+07    0   67 1.2402e+08 5.6037e+07  54.8%     -   11s
    13    19 5.6037e+07    4  210 1.2402e+08 5.6037e+07  54.8%   447   15s
    29    26 5.6040e+07    5  183 1.2402e+08 5.6037e+07  54.8%   361   28s
H   30    26                    1.240183e+08 5.6037e+07  54.8%   349   28s
H   32    26                    1.200220e+08 5.6037e+07  53.3%   337   28s
    45    39 5.6037e+07    6  233 1.2002e+08 5.6037e+07  53.3%   289   30s
H   66    51                    1.160246e+08 5.6037e+07  51.7%   231   35s
H   67    51                    1.120274e+08 5.6037e+07  50.0%   228   35s
H   75    51                    1.120260e+08 5.6037e+07  50.0%   214   35s
   220   187 5.6047e+07   18  199 1.1203e+08 5.6037e+07  50.0%   169   40s
   412   374 5.6037e+07   25  218 1.1203e+08 5.6037e+07  50.0%   149   46s
   546   539 5.6047e+07   32  187 1.1203e+08 5.6037e+07  50.0%   145   50s
  1074   881 5.6047e+07   82  193 1.1203e+08 5.6037e+07  50.0%   115   62s
H 1076   881                    1.080290e+08 5.6037e+07  48.1%   114   62s
  1199  1270 5.6047e+07   83  186 1.0803e+08 5.6037e+07  48.1%   111   66s
  2256  2130 5.6047e+07  161  189 1.0803e+08 5.6037e+07  48.1%  89.6   74s
  2737  2685 5.6047e+07  211  178 1.0803e+08 5.6037e+07  48.1%  88.4   79s
  3353  3507 5.6037e+07  138  182 1.0803e+08 5.6037e+07  48.1%  88.8   83s
  4400  3859 6.0037e+07  268  194 1.0803e+08 5.6037e+07  48.1%  82.2   92s
  4797  4593 6.0039e+07  341  190 1.0803e+08 5.6037e+07  48.1%  80.3   96s
H 5105  4593                    1.040314e+08 5.6037e+07  46.1%  79.8   96s
  5633  4594 5.6037e+07  250  220 1.0403e+08 5.6037e+07  46.1%  78.9  101s
  5636  4596 5.6044e+07  211  309 1.0403e+08 5.6037e+07  46.1%  78.8  106s
H 5637  4367                    1.000320e+08 5.6037e+07  44.0%  78.8  107s
H 5637  4148                    9.603500e+07 5.6037e+07  41.6%  78.8  111s
  5641  4150 5.6039e+07  269  270 9.6035e+07 5.6037e+07  41.6%  78.8  115s
  5645  4153 5.6053e+07  393  285 9.6035e+07 5.6037e+07  41.6%  78.7  120s
  5649  4159 5.6037e+07   16  266 9.6035e+07 5.6037e+07  41.6%  81.8  135s
  5655  4167 5.6037e+07   18  288 9.6035e+07 5.6037e+07  41.6%  83.7  147s
  5663  4172 5.6037e+07   19  276 9.6035e+07 5.6037e+07  41.6%  85.2  151s
  5671  4177 5.6037e+07   20  279 9.6035e+07 5.6037e+07  41.6%  85.5  156s
  5679  4183 5.6040e+07   20  212 9.6035e+07 5.6037e+07  41.6%  87.8  169s
H 5681  3974                    9.203440e+07 5.6037e+07  39.1%  87.8  169s
H 5685  3776                    9.203240e+07 5.6037e+07  39.1%  88.0  169s
  5687  3781 5.6037e+07   21  273 9.2032e+07 5.6037e+07  39.1%  88.1  177s
  5695  3786 5.6047e+07   21  205 9.2032e+07 5.6037e+07  39.1%  90.8  181s
  5705  3792 5.6037e+07   22  270 9.2032e+07 5.6037e+07  39.1%  91.6  185s
  5718  3796 5.6037e+07   23  281 9.2032e+07 5.6037e+07  39.1%  93.0  205s
H 5719  3607                    8.403600e+07 5.6037e+07  33.3%  92.9  205s
H 5723  3427                    8.403360e+07 5.6037e+07  33.3%  93.2  205s
  5726  3434 5.6048e+07   23  193 8.4034e+07 5.6037e+07  33.3%  94.1  210s
  5738  3465 5.6037e+07   24  270 8.4034e+07 5.6037e+07  33.3%  94.8  221s
  5781  3503 5.6037e+07   25  272 8.4034e+07 5.6037e+07  33.3%  96.9  237s
  5842  3613 5.6037e+07   26  273 8.4034e+07 5.6037e+07  33.3%   100  254s
  6034  4050 5.6037e+07   30  268 8.4034e+07 5.6037e+07  33.3%   108  282s
  6591  4192 5.6038e+07   41  210 8.4034e+07 5.6037e+07  33.3%   116  315s
H 6622  4012                    8.003620e+07 5.6037e+07  30.0%   117  315s
H 6736  3813                    8.003420e+07 5.6037e+07  30.0%   121  315s
  6979  5104 infeasible   56      8.0034e+07 5.6037e+07  30.0%   122  347s
  9077  4383 infeasible  185      8.0034e+07 5.6037e+07  30.0%   122  376s
  9129  4445 5.6040e+07   72  168 8.0034e+07 5.6037e+07  30.0%   128  388s
  9238  4498 5.6046e+07   86  140 8.0034e+07 5.6037e+07  30.0%   131  410s
  9351  4883 5.6046e+07   91  140 8.0034e+07 5.6037e+07  30.0%   132  424s
  9819  4850 5.6046e+07  151   71 8.0034e+07 5.6037e+07  30.0%   133  449s
H 9882  4676                    7.603680e+07 5.6037e+07  26.3%   133  449s
  9987  6265 5.6046e+07  169   86 7.6037e+07 5.6037e+07  26.3%   133  463s
H11969  5498                    7.203940e+07 5.6037e+07  22.2%   127  487s
H11970  5251                    6.804120e+07 5.6037e+07  17.6%   127  487s
 12009  5452 5.6048e+07  136   99 6.8041e+07 5.6037e+07  17.6%   128  500s
 12238  6609 5.6049e+07  237  102 6.8041e+07 5.6037e+07  17.6%   130  512s
H13044  6210                    6.804000e+07 5.6037e+07  17.6%   127  512s
 13639  6185 infeasible  377      6.8040e+07 5.6037e+07  17.6%   130  532s
H13646  6184                    6.803800e+07 5.6037e+07  17.6%   129  532s
 13667  6476 5.6040e+07   63  110 6.8038e+07 5.6037e+07  17.6%   131  545s
 13978  8553 5.6040e+07  145   94 6.8038e+07 5.6037e+07  17.6%   132  554s
 16822 14669 5.6047e+07  216   61 6.8038e+07 5.6037e+07  17.6%   121  581s
 24162 14796 5.6040e+07  100   69 6.8038e+07 5.6037e+07  17.6%  97.3  588s
 24295 15044 5.6043e+07  178   42 6.8038e+07 5.6037e+07  17.6%  97.2  591s
 24818 18729 5.6041e+07  145   92 6.8038e+07 5.6037e+07  17.6%  96.9  598s
 29772 18725 infeasible  189      6.8038e+07 5.6037e+07  17.6%  84.9  600s
 29856 18736 5.6039e+07  126   82 6.8038e+07 5.6037e+07  17.6%  85.3  609s
 29867 18783 5.6039e+07  127   67 6.8038e+07 5.6037e+07  17.6%  85.4  611s
 30095 18841 5.6047e+07  139   92 6.8038e+07 5.6037e+07  17.6%  86.0  616s
 30296 18918 infeasible  139      6.8038e+07 5.6037e+07  17.6%  86.6  621s
 30423 18926 5.6043e+07  142   93 6.8038e+07 5.6037e+07  17.6%  86.9  627s
 30445 18987 5.6045e+07  149   79 6.8038e+07 5.6037e+07  17.6%  87.0  630s
 30685 19114 5.6039e+07  117   73 6.8038e+07 5.6037e+07  17.6%  87.6  639s
 30808 19133 infeasible  143      6.8038e+07 5.6037e+07  17.6%  88.0  661s
 30911 19201 5.6041e+07  142   60 6.8038e+07 5.6037e+07  17.6%  88.5  666s
 31025 19280 5.6042e+07  120   84 6.8038e+07 5.6037e+07  17.6%  88.9  672s
 31195 19432 5.6041e+07  103   76 6.8038e+07 5.6037e+07  17.6%  89.3  677s
 31407 19433 5.6037e+07  156  220 6.8038e+07 5.6037e+07  17.6%  89.2  698s
H31408 18462                    6.803600e+07 5.6037e+07  17.6%  89.2  700s
 31411 18464 5.6041e+07  155  292 6.8036e+07 5.6037e+07  17.6%  89.2  705s
H31411 17541                    6.404120e+07 5.6037e+07  12.5%  89.2  707s
 31413 17542 5.6044e+07  263  303 6.4041e+07 5.6037e+07  12.5%  89.2  711s
 31415 17543 5.6045e+07  153  278 6.4041e+07 5.6037e+07  12.5%  89.2  715s
 31418 17545 6.0051e+07  236  289 6.4041e+07 5.6037e+07  12.5%  89.2  724s
 31419 17546 5.6045e+07  197  251 6.4041e+07 5.6037e+07  12.5%  89.2  725s
 31421 17550 5.6037e+07   29  252 6.4041e+07 5.6037e+07  12.5%  89.8  741s
 31423 17552 5.6037e+07   30  286 6.4041e+07 5.6037e+07  12.5%  89.9  747s
 31427 17551 5.6037e+07   31  263 6.4041e+07 5.6037e+07  12.5%  90.0  753s
 31433 17553 5.6037e+07   32  261 6.4041e+07 5.6037e+07  12.5%  90.2  766s
 31440 17553 5.6037e+07   33  256 6.4041e+07 5.6037e+07  12.5%  90.4  775s
 31448 17555 5.6037e+07   34  260 6.4041e+07 5.6037e+07  12.5%  90.5  787s
H31455 16675                    6.404040e+07 5.6037e+07  12.5%  90.7  787s
 31456 16680 5.6048e+07   34  244 6.4040e+07 5.6037e+07  12.5%  90.8  794s
 31464 16683 5.6037e+07   35  222 6.4040e+07 5.6037e+07  12.5%  91.0  799s
 31474 16688 5.6038e+07   35  214 6.4040e+07 5.6037e+07  12.5%  91.1  804s
 31484 16689 5.6037e+07   36  223 6.4040e+07 5.6037e+07  12.5%  91.2  828s
 31494 16692 5.6040e+07   36  206 6.4040e+07 5.6037e+07  12.5%  91.4  830s
 31525 16703 infeasible   38      6.4040e+07 5.6037e+07  12.5%  91.6  839s
H31538 15864                    6.004300e+07 5.6037e+07  6.67%  92.3  839s
 31540 15904 infeasible   39      6.0043e+07 5.6037e+07  6.67%  92.3  844s
 31591 15990 5.6037e+07   42  151 6.0043e+07 5.6037e+07  6.67%  92.9  852s
 31726 16121 5.6037e+07   48  136 6.0043e+07 5.6037e+07  6.67%  94.2  867s
H31745 15322                    5.604360e+07 5.6037e+07  0.01%  94.6  867s
 31926 15854 5.6037e+07   57  104 5.6044e+07 5.6037e+07  0.01%  95.4  891s
 32723 16663 5.6037e+07   89  107 5.6044e+07 5.6037e+07  0.01%  98.5  913s
 34316 17179 5.6037e+07  109   93 5.6044e+07 5.6037e+07  0.01%  99.5  926s
 35592 18794 5.6037e+07  353  107 5.6044e+07 5.6037e+07  0.01%  98.0  933s
 38352 19904 5.6042e+07  178   81 5.6044e+07 5.6037e+07  0.01%  94.5  941s
 41161 19730 5.6040e+07  420   97 5.6044e+07 5.6037e+07  0.01%  91.6  957s
 42351 20660 5.6038e+07  157  101 5.6044e+07 5.6037e+07  0.01%  91.1  964s
 44336 21741 5.6037e+07  135  117 5.6044e+07 5.6037e+07  0.01%  89.8  969s
 46751 20938 5.6038e+07  173  220 5.6044e+07 5.6037e+07  0.01%  88.2  996s
 46753 20939 5.6037e+07  163  257 5.6044e+07 5.6037e+07  0.01%  88.2 1001s
 46754 20940 5.6042e+07  276  249 5.6044e+07 5.6037e+07  0.01%  88.2 1005s
 46756 20941 5.6043e+07  321  251 5.6044e+07 5.6037e+07  0.01%  88.2 1010s
 46758 20943 5.6038e+07  378  266 5.6044e+07 5.6037e+07  0.01%  88.2 1016s
 46760 20944 5.6037e+07  171  272 5.6044e+07 5.6037e+07  0.01%  88.1 1021s
 46763 20947 5.6037e+07   42  258 5.6044e+07 5.6037e+07  0.01%  88.5 1032s
 46765 20948 5.6037e+07   43  234 5.6044e+07 5.6037e+07  0.01%  88.5 1038s
 46767 20950 5.6037e+07   44  226 5.6044e+07 5.6037e+07  0.01%  88.9 1045s
 46771 20950 5.6037e+07   45  220 5.6044e+07 5.6037e+07  0.01%  89.0 1053s
 46777 20947 5.6037e+07   46  225 5.6044e+07 5.6037e+07  0.01%  89.2 1064s
 46785 20948 5.6037e+07   47  185 5.6044e+07 5.6037e+07  0.01%  89.6 1072s
 46792 20947 5.6037e+07   48  175 5.6044e+07 5.6037e+07  0.01%  89.8 1078s
 46800 20947 5.6037e+07   49  179 5.6044e+07 5.6037e+07  0.01%  90.0 1084s
 46808 20947 5.6037e+07   50  170 5.6044e+07 5.6037e+07  0.01%  90.1 1088s
 46816 20948 5.6037e+07   50  168 5.6044e+07 5.6037e+07  0.01%  90.2 1096s
 46824 20954 5.6037e+07   51  170 5.6044e+07 5.6037e+07  0.01%  90.4 1101s
H46828 19904                    5.604160e+07 5.6037e+07  0.01%  90.4 1101s

Cutting planes:
  Learned: 1
  Cover: 131
  Implied bound: 1
  Projected implied bound: 4
  Clique: 24
  MIR: 22
  StrongCG: 21
  Flow cover: 19
  GUB cover: 66
  RLT: 67
  Relax-and-lift: 2

Explored 46833 nodes (4244257 simplex iterations) in 1101.77 seconds
Thread count was 8 (of 8 available processors)

Solution count 10: 5.60416e+07 5.60436e+07 6.0043e+07 ... 7.20394e+07

Optimal solution found (tolerance 1.00e-04)
Best objective 5.604160000000e+07, best bound 5.603720000000e+07, gap 0.0079%
